--- Job CVaR_03MIN.gms Start 12/06/19 15:00:54 28.2.0 r750fa45 DEX-DEG x86 64bit/Mac OS X
--- GAMS Parameters defined
    Input /Users/cicada/Documents/DTU/OF/final/CVaR_03MIN.gms
    PageSize 0
    ScrDir /Users/cicada/Documents/DTU/OF/final/225e/
    SysDir /Applications/GAMS28.2/sysdir/
    LogOption 3
    ErrMsg 1
    ErrorLog 99
    IDE 1
    LstTitleLeftAligned 1
GAMS 28.2.0   Copyright (C) 1987-2019 GAMS Development. All rights reserved
Licensee: Course License Fall 2019                       G190805/0001AO-GEN
          Technical University of Denmark, Management Engineering    DCE146
          License for teaching and research at degree granting institutions
          License Admin: Thomas Stidsen, thst@man.dtu.dk                   
--- Starting compilation
--- CVaR_03MIN.gms(27) 2 Mb
--- GDXin=/Users/cicada/Documents/DTU/OF/final/RScen.gdx
--- CVaR_03MIN.gms(28) 72 Mb
--- CVaR_03MIN.gms(28) 100 Mb--- CVaR_03MIN.gms(28) 181 M
--- CVaR_03MIN.gms(28) 181 Mb--- CVaR_03MIN.gms(28) 202 Mb
--- CVaR_03MIN.gms(28) 202 Mb
--- CVaR_03MIN.gms(28) 276 Mb
--- CVaR_03MIN.gms(57) 278 Mb

--- GDXin=/Users/cicada/Documents/DTU/OF/final/Targets_new.gdx
--- CVaR_03MIN.gms(228) 278 Mb
--- Starting execution: elapsed 0:00:00.818
--- CVaR_03MIN.gms(92) 279 Mb
--- CVaR_03MIN.gms(92) 329 Mb
--- CVaR_03MIN.gms(92) 352 Mb
--- CVaR_03MIN.gms(92) 449 Mb
--- CVaR_03MIN.gms(92) 472 Mb
--- CVaR_03MIN.gms(92) 481 Mb
--- CVaR_03MIN.gms(92) 482 Mb
--- CVaR_03MIN.gms(220) 483 Mb

--- Generating MIP model CVaRModel
--- CVaR_03MIN.gms(224) 485 Mb
---   1,046 rows  1,225 columns  48,418 non-zeroes
---   180 discrete-columns
--- Executing CPLEX: elapsed 0:00:03.472

IBM ILOG CPLEX   28.2.0 r750fa45 Released Aug 19, 2019 DEG x86 64bit/Mac OS X 
--- GAMS/Cplex licensed for continuous and discrete problems.
Cplex 12.9.0.0

Reading data...
Starting Cplex...
Space for names approximately 0.06 Mb
Use option 'names no' to turn use of names off
CPXPARAM_Advance                                 0
CPXPARAM_Threads                                 1
CPXPARAM_Parallel                                1
CPXPARAM_MIP_Display                             4
CPXPARAM_Simplex_Limits_Iterations               2000000000
CPXPARAM_TimeLimit                               1000
CPXPARAM_Tune_TimeLimit                          200
CPXPARAM_MIP_Tolerances_AbsMIPGap                0
CPXPARAM_MIP_Tolerances_MIPGap                   0.10000000000000001
CPXPARAM_WorkDir                                 "/Users/cicada/Documents/DTU/OF/final/225e/"
Tried aggregator 2 times.
MIP Presolve eliminated 4 rows and 4 columns.
MIP Presolve modified 45180 coefficients.
Aggregator did 250 substitutions.
Reduced MIP has 792 rows, 971 columns, and 46869 nonzeros.
Reduced MIP has 180 binaries, 0 generals, 0 SOSs, and 0 indicators.
Presolve time = 0.05 sec. (130.86 ticks)
Found incumbent of value 969.072096 after 0.06 sec. (140.43 ticks)
Probing time = 0.00 sec. (1.28 ticks)
Tried aggregator 1 time.
Reduced MIP has 792 rows, 971 columns, and 46869 nonzeros.
Reduced MIP has 180 binaries, 0 generals, 0 SOSs, and 0 indicators.
Presolve time = 0.03 sec. (12.81 ticks)
Probing time = 0.00 sec. (1.27 ticks)
MIP emphasis: balance optimality and feasibility.
MIP search method: dynamic search.
Parallel mode: none, using 1 thread.
Tried aggregator 1 time.
No LP presolve or aggregator reductions.
Presolve time = 0.00 sec. (2.56 ticks)
Initializing dual steep norms . . .

Iteration log . . .
Iteration:     1   Scaled dual infeas =             0.910800
Iteration:    59   Dual objective     =        123355.561848
Iteration:   152   Dual objective     =         99191.050807
Root relaxation solution time = 0.02 sec. (46.81 ticks)

        Nodes                                         Cuts/
   Node  Left     Objective  IInf  Best Integer    Best Bound    ItCnt     Gap

*     0+    0                          969.0721                           0.00%
Found incumbent of value 969.072096 after 0.12 sec. (208.55 ticks)
      0     0    99067.4095    12      969.0721    99067.4095      196     --- 
*     0+    0                        99065.2094    99067.4095             0.00%
Found incumbent of value 99065.209421 after 0.12 sec. (216.98 ticks)

Root node processing (before b&c):
  Real time             =    0.13 sec. (217.18 ticks)
Sequential b&c:
  Real time             =    0.00 sec. (0.00 ticks)
                          ------------
Total (root+branch&cut) =    0.13 sec. (217.18 ticks)
MIP status(102): integer optimal, tolerance
Cplex Time: 0.13sec (det. 217.18 ticks)
Fixing integer variables, and solving final LP...
CPXPARAM_Advance                                 2
CPXPARAM_Threads                                 1
CPXPARAM_Parallel                                1
CPXPARAM_MIP_Display                             4
CPXPARAM_Simplex_Limits_Iterations               2000000000
CPXPARAM_TimeLimit                               1000
CPXPARAM_Tune_TimeLimit                          200
CPXPARAM_MIP_Tolerances_AbsMIPGap                0
CPXPARAM_MIP_Tolerances_MIPGap                   0.10000000000000001
CPXPARAM_WorkDir                                 "/Users/cicada/Documents/DTU/OF/final/225e/"
Tried aggregator 1 time.
LP Presolve eliminated 528 rows and 676 columns.
Aggregator did 250 substitutions.
Reduced LP has 268 rows, 299 columns, and 4580 nonzeros.
Presolve time = 0.01 sec. (5.09 ticks)
Initializing dual steep norms . . .

Iteration log . . .
Iteration:     1   Dual infeasibility =             0.910800
Iteration:    20   Dual objective     =        100544.209172
Fixed MIP status(1): optimal
Cplex Time: 0.01sec (det. 9.52 ticks)

Solution satisfies tolerances.

MIP Solution:        99065.209421    (196 iterations, 0 nodes)
Final Solve:         99065.209421    (66 iterations)

Best possible:       99067.409461
Absolute gap:            2.200040
Relative gap:            0.000022

--- Restarting execution
--- CVaR_03MIN.gms(224) 280 Mb
--- Reading solution for model CVaRModel
--- Executing after solve: elapsed 0:00:05.054
--- CVaR_03MIN.gms(227) 281 Mb
*** Status: Normal completion
--- Job CVaR_03MIN.gms Stop 12/06/19 15:00:59 elapsed 0:00:05.054
